
  14    4
  10   10   10   10

   0   0   0   0   0   2 2 7 
   6   0   1   4   0   2 6 3 
   6   1   0   5   0   1 4 
   7   8   8   6   1   1 5 
  10   0   0   0   7   1 8 
  10   7   0   0   0   1 8 
   2   0   8   0   0   1 8 
   1   8   9  10   9   1 9 
   3   0   0   0   8   1 10 
   2   0   0   4   0   1 11 
   6   9   0   0   0   1 12 
   5   0   7   0   7   1 13 
   9   0   0  10   7   1 14
   0   0   0   0   0   0 

TAO:7